
List of user-set options:

                                    Name   Value                used
                   hessian_approximation = limited-memory        yes
                           linear_solver = mumps                 yes
                  ma57_automatic_scaling = yes                    no
                                max_iter = 300                   yes
                             mu_strategy = adaptive              yes
                             output_file = Goddard-Rocket-ProblemIPOPTinfo.txt  yes
                             print_level = 5                     yes
                      print_user_options = yes                   yes
                                     tol = 1e-007                yes
This is Ipopt version 3.11.0, running with linear solver mumps.

Number of nonzeros in equality constraint Jacobian...:    22142
Number of nonzeros in inequality constraint Jacobian.:      553
Number of nonzeros in Lagrangian Hessian.............:        0

Total number of variables............................:     2492
                     variables with only lower bounds:        0
                variables with lower and upper bounds:     2492
                     variables with only upper bounds:        0
Total number of equality constraints.................:     2216
Total number of inequality constraints...............:      278
        inequality constraints with only lower bounds:        0
   inequality constraints with lower and upper bounds:      278
        inequality constraints with only upper bounds:        0

iter    objective    inf_pr   inf_du lg(mu)  ||d||  lg(rg) alpha_du alpha_pr  ls
   0 2.9608755e+004 4.14e-001 1.00e+002   0.0 0.00e+000    -  0.00e+000 0.00e+000   0
   1 2.9615360e+004 4.12e-001 1.00e+002   0.7 2.26e+001    -  2.10e-002 4.82e-003f  1
   2 2.9663518e+004 4.06e-001 2.06e+002   0.1 2.16e+001    -  1.72e-001 1.52e-002f  2
   3 2.9681398e+004 4.04e-001 6.23e+002   0.1 2.08e+001    -  3.70e-001 4.09e-003f  5
   4 2.9819943e+004 3.92e-001 4.35e+003   0.1 2.08e+001    -  6.20e-001 3.09e-002f  2
   5 2.9828659e+004 3.91e-001 1.29e+005   0.1 1.94e+001    -  9.10e-001 2.01e-003h  5
   6 2.9836323e+004 3.90e-001 3.48e+006   0.1 1.76e+001    -  8.60e-001 1.98e-003h  5
   7 2.9953127e+004 3.81e-001 3.88e+007   0.1 9.43e+000    -  6.24e-001 5.26e-002f  1
   8 3.0466668e+004 3.85e-001 1.03e+008   0.1 8.25e+000    -  8.12e-001 2.44e-001f  1
   9 3.0585182e+004 3.86e-001 1.04e+008   0.1 4.98e+000    -  2.48e-001 8.49e-002h  4
iter    objective    inf_pr   inf_du lg(mu)  ||d||  lg(rg) alpha_du alpha_pr  ls
  10 3.0689025e+004 3.88e-001 1.11e+008   0.1 4.38e+000    -  3.30e-001 8.39e-002h  4
  11 3.0700234e+004 3.88e-001 1.64e+008   0.1 3.93e+000    -  1.00e+000 1.00e-002h  7
  12 3.0701600e+004 3.88e-001 1.65e+008   0.1 3.89e+000    -  5.53e-001 1.25e-003h 10
  13 3.0702276e+004 3.88e-001 1.65e+008   0.1 3.88e+000    -  1.00e+000 6.24e-004h 11
  14 3.0702608e+004 3.88e-001 1.65e+008   0.1 3.87e+000    -  5.51e-001 3.12e-004h 12
  15 3.1414203e+004 3.97e-001 1.44e+008   0.1 3.87e+000    -  1.00e+000 5.75e-001H  1
  16 3.1445820e+004 3.98e-001 1.30e+008   0.1 1.42e+000    -  6.06e-001 1.64e-001h  1
  17 3.1446931e+004 3.98e-001 1.40e+008   0.1 8.29e-001    -  4.26e-001 2.63e-002h  1
  18 3.1497422e+004 4.06e-001 1.29e+007   0.1 8.49e-001    -  4.66e-001 1.00e+000h  1
  19r3.1497422e+004 4.06e-001 9.99e+002   2.1 0.00e+000   6.3 0.00e+000 1.27e-008R  2
iter    objective    inf_pr   inf_du lg(mu)  ||d||  lg(rg) alpha_du alpha_pr  ls
  20r3.1386066e+004 4.52e-001 1.22e+003   0.4 1.22e+001    -  5.24e-001 8.70e-001f  1
  21r3.1291018e+004 4.47e-001 1.55e+003  -5.0 2.86e+000    -  1.32e-001 5.55e-001f  1
  22r3.1098872e+004 4.62e-001 1.27e+003  -1.4 4.52e+000    -  2.74e-001 7.22e-001f  1
  23r3.0727405e+004 4.78e-001 5.13e+002  -0.8 6.06e+000    -  5.32e-001 7.49e-001f  1
  24r3.0013793e+004 4.79e-001 2.70e+002  -0.6 2.64e+000    -  5.88e-001 5.30e-001f  1
  25r2.9312573e+004 4.79e-001 2.81e+002  -1.1 1.39e+000    -  8.22e-001 7.85e-001f  1
  26r2.9418647e+004 4.79e-001 2.71e+002  -0.9 6.75e-001    -  6.28e-001 1.00e+000f  1
  27r2.9567454e+004 4.78e-001 2.33e+002  -1.5 1.38e+000    -  1.00e+000 4.12e-001f  1
  28r2.9596855e+004 4.78e-001 3.26e+002  -1.5 2.16e+000    -  1.00e+000 3.41e-001f  1
  29r2.9609662e+004 4.78e-001 1.45e+002  -1.5 1.65e+000    -  1.00e+000 5.07e-001f  1
iter    objective    inf_pr   inf_du lg(mu)  ||d||  lg(rg) alpha_du alpha_pr  ls
  30r2.9599792e+004 4.78e-001 1.28e+002  -1.9 1.38e+000    -  1.00e+000 5.14e-001f  1
  31r2.9597040e+004 4.78e-001 2.28e+001  -1.9 1.40e+000    -  1.00e+000 9.11e-001f  1
  32r2.9598560e+004 4.78e-001 1.33e+000  -1.8 5.20e-001    -  9.83e-001 1.00e+000h  1
  33r2.9583193e+004 4.78e-001 6.57e+001  -2.5 8.20e-001    -  1.00e+000 7.17e-001f  1
  34r2.9584575e+004 4.78e-001 2.90e+001  -2.1 2.58e+000    -  1.00e+000 3.26e-001f  1
  35r2.9581991e+004 4.78e-001 1.24e+000  -2.2 4.96e-001    -  1.00e+000 1.00e+000f  1
  36r2.9576780e+004 4.78e-001 4.47e+001  -2.6 1.82e-001    -  1.00e+000 5.76e-001f  1
  37r2.9578301e+004 4.78e-001 3.99e+000  -2.2 9.22e-001    -  8.72e-001 8.37e-001f  1
  38r2.9575828e+004 4.78e-001 7.52e+000  -2.4 3.48e-001    -  7.25e-001 1.00e+000f  1
  39r2.9576425e+004 4.78e-001 3.27e+000  -2.4 1.61e+000    -  9.97e-001 5.65e-001h  1
iter    objective    inf_pr   inf_du lg(mu)  ||d||  lg(rg) alpha_du alpha_pr  ls
  40r2.9577492e+004 4.78e-001 1.50e+000  -2.4 3.77e-001    -  5.55e-001 1.00e+000f  1
  41r2.9573633e+004 4.78e-001 3.60e+001  -2.9 5.90e-001    -  1.00e+000 5.75e-001f  1
  42r2.9574012e+004 4.78e-001 2.48e+001  -2.4 2.23e+000    -  1.00e+000 1.43e-001f  1
  43r2.9573910e+004 4.78e-001 1.12e+001  -2.6 2.11e-001    -  6.37e-001 1.00e+000f  1
  44r2.9574364e+004 4.78e-001 8.22e-001  -2.8 6.12e-001    -  1.00e+000 1.00e+000f  1
  45r2.9579991e+004 4.78e-001 6.30e-001  -2.6 4.56e-001    -  1.00e+000 1.00e+000f  1
  46r2.9579427e+004 4.78e-001 4.85e-001  -2.7 4.52e-001    -  1.00e+000 1.00e+000f  1
  47r2.9580317e+004 4.78e-001 7.50e+000  -3.0 2.93e-001    -  9.95e-001 7.59e-001f  1
  48r2.9586108e+004 4.78e-001 2.89e+000  -3.0 1.48e+000    -  1.00e+000 6.44e-001f  1
  49r2.9585476e+004 4.78e-001 9.84e+000  -2.7 1.76e+000    -  1.00e+000 6.42e-001f  1
iter    objective    inf_pr   inf_du lg(mu)  ||d||  lg(rg) alpha_du alpha_pr  ls
  50r2.9580286e+004 4.78e-001 1.07e+001  -2.8 1.69e+000    -  3.52e-001 8.32e-001h  1
  51r2.9581828e+004 4.78e-001 7.58e+000  -2.8 2.62e+000    -  2.60e-001 5.09e-001H  1
  52r2.9581881e+004 4.78e-001 3.75e+000  -2.8 2.86e+000    -  1.00e+000 4.58e-002h  1
  53r2.9582671e+004 4.78e-001 3.91e+000  -2.8 3.28e-001    -  3.22e-001 1.00e+000h  1
  54r2.9584129e+004 4.78e-001 2.41e+000  -2.8 2.85e+000    -  3.94e-001 3.57e-001h  1
  55r2.9583810e+004 4.78e-001 8.19e-001  -2.8 7.18e-001    -  3.41e-001 1.00e+000f  1
  56r2.9583798e+004 4.78e-001 1.82e-001  -2.8 1.43e-001    -  1.00e+000 1.00e+000h  1
  57r2.9585067e+004 4.78e-001 6.59e-001  -3.1 1.29e-001    -  9.91e-001 9.74e-001f  1
  58r2.9585406e+004 4.78e-001 1.37e+000  -2.9 6.95e-001    -  1.00e+000 9.85e-001f  1
  59r2.9585116e+004 4.78e-001 7.02e+000  -3.0 6.96e-001    -  3.06e-001 1.00e+000f  1
iter    objective    inf_pr   inf_du lg(mu)  ||d||  lg(rg) alpha_du alpha_pr  ls
  60r2.9584913e+004 4.78e-001 7.88e-001  -3.0 8.42e-001    -  1.00e+000 5.63e-001h  1
  61r2.9585360e+004 4.78e-001 4.26e-001  -3.0 3.75e-001    -  1.00e+000 9.73e-001h  1
  62r2.9585427e+004 4.78e-001 5.03e-001  -3.0 3.41e-001    -  6.96e-001 1.00e+000f  1
  63r2.9585356e+004 4.78e-001 8.53e-001  -3.0 4.98e-001    -  1.00e+000 1.00e+000h  1
  64r2.9585082e+004 4.78e-001 2.10e-001  -3.0 3.65e-001    -  7.16e-001 1.00e+000h  1
  65r2.9585342e+004 4.78e-001 1.06e-001  -3.0 1.16e-001    -  1.00e+000 1.00e+000h  1
  66r2.9583587e+004 4.78e-001 2.77e+000  -3.4 3.64e-001    -  9.98e-001 8.67e-001f  1
  67r2.9586295e+004 4.78e-001 2.72e+000  -3.4 8.23e-001    -  1.00e+000 5.59e-001f  1
  68r2.9587283e+004 4.78e-001 3.54e+000  -3.0 1.61e+000    -  7.91e-001 5.83e-001f  1
  69r2.9586019e+004 4.78e-001 7.83e+000  -3.2 6.24e-001    -  1.29e-001 1.00e+000h  1
iter    objective    inf_pr   inf_du lg(mu)  ||d||  lg(rg) alpha_du alpha_pr  ls
  70r2.9586257e+004 4.78e-001 3.87e+000  -3.2 8.71e-001    -  1.00e+000 3.43e-001h  1
  71r2.9587436e+004 4.78e-001 7.76e-001  -3.2 3.06e-001    -  6.35e-001 1.00e+000h  1
  72r2.9586834e+004 4.78e-001 2.15e+000  -3.2 1.70e+000    -  1.00e+000 1.83e-001h  2
  73r2.9587344e+004 4.78e-001 7.61e-001  -3.2 2.57e-001    -  7.29e-001 1.00e+000h  1
  74r2.9588100e+004 4.78e-001 1.35e+000  -3.5 2.49e-001    -  1.00e+000 8.89e-001f  1
  75r2.9591237e+004 4.78e-001 1.20e+000  -3.3 6.14e-001    -  1.00e+000 1.00e+000f  1
  76r2.9591055e+004 4.78e-001 2.60e+000  -3.4 5.95e-001    -  3.68e-001 1.00e+000h  1
  77r2.9590183e+004 4.78e-001 1.33e+000  -3.4 5.80e-001    -  1.00e+000 6.21e-001h  1
  78r2.9593070e+004 4.78e-001 4.85e-001  -3.4 3.49e-001    -  1.00e+000 1.00e+000h  1
  79r2.9593115e+004 4.78e-001 7.23e-001  -3.4 8.47e-001    -  8.53e-001 2.05e-001h  2
iter    objective    inf_pr   inf_du lg(mu)  ||d||  lg(rg) alpha_du alpha_pr  ls
  80r2.9591754e+004 4.78e-001 3.45e-001  -3.4 2.81e-001    -  9.05e-001 1.00e+000h  1
  81r2.9591719e+004 4.78e-001 3.17e-001  -3.4 1.30e+000    -  4.07e-001 1.43e-001h  2
  82r2.9592520e+004 4.78e-001 2.83e-002  -3.4 1.01e-001    -  1.00e+000 1.00e+000h  1
  83r2.9594642e+004 4.78e-001 2.31e+000  -3.7 2.24e-001    -  9.97e-001 7.11e-001f  1
  84r2.9594604e+004 4.78e-001 1.81e+000  -3.1 3.24e+000    -  3.91e-001 2.90e-001f  1
  85r2.9593931e+004 4.78e-001 2.21e+000  -3.5 1.66e+000    -  1.99e-001 4.29e-001h  1
  86r2.9590618e+004 4.78e-001 1.91e+000  -3.5 3.35e+000    -  8.22e-002 2.93e-001h  1
  87r2.9588422e+004 4.78e-001 1.71e+000  -3.5 1.08e+000    -  1.78e-001 1.61e-001h  2
  88r2.9584190e+004 4.78e-001 1.81e+000  -3.5 7.92e-001    -  1.00e+000 8.87e-001h  1
  89r2.9585075e+004 4.78e-001 2.22e+000  -3.5 1.33e+000    -  4.12e-001 5.58e-001H  1
iter    objective    inf_pr   inf_du lg(mu)  ||d||  lg(rg) alpha_du alpha_pr  ls
  90r2.9584050e+004 4.78e-001 1.97e+000  -3.5 6.44e-001    -  6.52e-001 1.00e+000f  1
  91r2.9584013e+004 4.78e-001 5.28e-001  -3.5 3.89e-001    -  1.00e+000 1.00e+000h  1
  92r2.9584411e+004 4.78e-001 1.01e-001  -3.5 2.42e-001    -  1.00e+000 1.00e+000h  1
  93r2.9586173e+004 4.78e-001 2.63e+000  -4.1 8.00e-002    -  9.97e-001 8.08e-001f  1
  94r2.9582188e+004 4.78e-001 2.28e+000  -3.4 5.34e-001    -  8.02e-001 6.44e-001f  1
  95r2.9581298e+004 4.78e-001 2.14e+000  -3.6 2.07e+000    -  2.43e-001 4.53e-001h  1
  96r2.9581620e+004 4.78e-001 2.08e+000  -3.6 1.53e+000    -  5.56e-002 3.68e-001f  1
  97r2.9581397e+004 4.78e-001 2.30e+000  -3.6 9.59e+000    -  2.37e-001 2.83e-002f  1
  98r2.9584330e+004 4.78e-001 1.68e+000  -3.6 8.99e-001    -  3.96e-001 7.88e-001h  1
  99r2.9586848e+004 4.78e-001 1.70e+000  -3.6 3.05e+000    -  2.88e-001 3.81e-001f  1
iter    objective    inf_pr   inf_du lg(mu)  ||d||  lg(rg) alpha_du alpha_pr  ls
 100r2.9584309e+004 4.78e-001 2.28e+000  -3.6 8.25e-001    -  1.54e-001 1.00e+000h  1
 101r2.9583755e+004 4.78e-001 1.99e+000  -3.6 3.37e+000    -  1.29e-001 1.13e-001h  1
 102r2.9582487e+004 4.78e-001 1.06e+000  -3.6 1.00e+000    -  8.77e-001 5.09e-001h  1
 103r2.9586983e+004 4.78e-001 1.64e+000  -3.6 8.33e-001    -  2.84e-001 9.14e-001H  1
 104r2.9587693e+004 4.78e-001 9.21e-001  -3.6 1.41e+000    -  2.99e-001 2.32e-001f  1
 105r2.9585147e+004 4.78e-001 1.64e+000  -3.6 2.47e+000    -  2.19e-002 2.92e-001F  1
 106r2.9583642e+004 4.78e-001 1.77e+000  -3.6 2.60e+000    -  8.28e-003 1.49e-001f  1
 107r2.9585427e+004 4.78e-001 2.37e-001  -3.6 4.11e-001    -  8.43e-001 1.00e+000h  1
 108r2.9585398e+004 4.78e-001 7.65e-001  -3.6 6.32e-001    -  7.55e-001 7.24e-001H  1
 109r2.9585341e+004 4.78e-001 4.76e-001  -3.6 3.61e-001    -  6.70e-001 1.00e+000h  1
iter    objective    inf_pr   inf_du lg(mu)  ||d||  lg(rg) alpha_du alpha_pr  ls
 110r2.9584752e+004 4.78e-001 1.02e+000  -3.6 1.10e+000    -  8.34e-001 1.74e-001h  2
 111r2.9585103e+004 4.78e-001 4.15e-001  -3.6 2.63e-001    -  7.16e-001 1.00e+000h  1
 112r2.9586514e+004 4.78e-001 1.92e-001  -3.6 2.32e-001    -  9.06e-001 1.00e+000h  1
 113r2.9585495e+004 4.78e-001 6.15e-001  -3.6 1.58e+000    -  2.66e-001 1.85e-001h  2
 114r2.9585205e+004 4.78e-001 4.84e-001  -3.6 1.26e+000    -  3.56e-001 1.48e-001h  3
 115r2.9585158e+004 4.78e-001 3.75e-001  -3.6 8.30e-001    -  6.00e-001 1.76e-001h  2
 116r2.9585783e+004 4.78e-001 2.47e-001  -3.6 2.59e-001    -  1.00e+000 1.00e+000h  1
 117r2.9585513e+004 4.78e-001 3.42e-001  -3.6 3.10e-001    -  1.00e+000 3.46e-001h  2
 118r2.9585121e+004 4.78e-001 1.84e+000  -3.6 9.12e-001    -  4.72e-001 1.00e+000H  1
 119r2.9585753e+004 4.78e-001 4.94e-001  -3.3 9.47e-001    -  1.00e+000 1.00e+000f  1
iter    objective    inf_pr   inf_du lg(mu)  ||d||  lg(rg) alpha_du alpha_pr  ls
 120r2.9585584e+004 4.78e-001 4.21e-001  -3.4 1.79e+000    -  2.20e-001 2.17e-001h  1
 121r2.9585165e+004 4.78e-001 1.05e-001  -3.4 1.51e-001    -  1.00e+000 1.00e+000f  1
 122r2.9584614e+004 4.78e-001 1.05e+000  -3.4 1.26e+000    -  3.69e-001 4.81e-001h  2
 123r2.9584771e+004 4.78e-001 3.33e-002  -3.4 5.35e-001    -  1.00e+000 1.00e+000h  1
 124r2.9584959e+004 4.78e-001 4.84e-002  -3.4 2.46e-002    -  1.00e+000 1.00e+000h  1
 125r2.9585057e+004 4.78e-001 5.04e+000  -4.0 1.34e-001    -  9.98e-001 6.85e-001f  1
 126r2.9584400e+004 4.78e-001 4.62e-001  -3.5 2.30e-001    -  1.00e+000 1.00e+000f  1
 127r2.9585630e+004 4.78e-001 1.01e+000  -3.6 7.44e-001    -  9.95e-001 9.43e-001h  1
 128r2.9586199e+004 4.78e-001 3.61e-001  -3.6 6.10e-001    -  9.25e-001 7.15e-001f  1
 129r2.9583224e+004 4.78e-001 1.79e+000  -3.6 9.08e-001    -  4.88e-002 7.52e-001f  1
iter    objective    inf_pr   inf_du lg(mu)  ||d||  lg(rg) alpha_du alpha_pr  ls
 130r2.9585963e+004 4.78e-001 1.16e+000  -3.6 9.40e-001    -  3.64e-001 7.29e-001H  1
 131r2.9585544e+004 4.78e-001 1.41e+000  -3.6 7.10e+000    -  1.20e-002 5.58e-002f  1
 132r2.9587859e+004 4.78e-001 2.13e+000  -3.6 2.17e+000    -  3.88e-001 5.78e-001f  1
 133r2.9583459e+004 4.78e-001 3.46e+000  -3.6 9.22e-001    -  4.46e-002 5.73e-001f  1
 134r2.9584902e+004 4.78e-001 2.10e+000  -3.6 9.01e+000    -  9.66e-003 1.04e-001f  1
 135r2.9584810e+004 4.78e-001 1.85e+000  -3.6 1.63e+000    -  3.51e-002 1.51e-001h  1
 136r2.9586385e+004 4.78e-001 3.71e+000  -3.6 1.64e+000    -  6.38e-001 2.59e-001h  1
 137r2.9586695e+004 4.78e-001 3.23e+000  -3.6 2.70e+000    -  2.87e-001 5.46e-001H  1
 138r2.9585874e+004 4.78e-001 9.28e-002  -3.6 1.27e+000    -  9.93e-001 1.00e+000f  1
 139r2.9586529e+004 4.78e-001 1.25e+000  -3.6 1.27e+000    -  8.97e-001 4.38e-001h  2
iter    objective    inf_pr   inf_du lg(mu)  ||d||  lg(rg) alpha_du alpha_pr  ls
 140r2.9584562e+004 4.78e-001 5.14e-001  -3.6 5.74e-001    -  6.69e-001 1.00e+000h  1
 141r2.9585943e+004 4.78e-001 8.20e-001  -3.6 1.60e+000    -  2.32e-001 3.00e-001h  2
 142r2.9588236e+004 4.78e-001 1.58e+000  -3.6 1.10e+000    -  4.94e-001 1.00e+000H  1
 143r2.9585771e+004 4.78e-001 9.79e+000  -2.6 4.49e+000    -  2.16e-001 1.02e-001f  1
 144r2.9583468e+004 4.78e-001 7.22e+000  -3.3 1.54e+000    -  2.61e-001 2.99e-001h  1
 145r2.9579137e+004 4.78e-001 9.80e+000  -3.3 2.20e+000    -  1.00e-001 4.87e-001f  1
 146r2.9580203e+004 4.78e-001 9.26e+000  -3.3 6.19e+000    -  1.43e-002 2.54e-001f  1
 147r2.9581801e+004 4.78e-001 6.96e+000  -3.3 1.57e+000    -  1.23e-001 4.91e-001h  1
 148r2.9581978e+004 4.78e-001 6.81e+000  -3.3 2.78e+000    -  4.55e-002 2.37e-001h  1
 149r2.9583685e+004 4.78e-001 5.69e+000  -3.3 5.21e+000    -  1.49e-002 2.00e-001f  1
iter    objective    inf_pr   inf_du lg(mu)  ||d||  lg(rg) alpha_du alpha_pr  ls
 150r2.9583935e+004 4.78e-001 4.67e+000  -3.3 1.12e+000    -  7.81e-002 4.54e-001h  1
 151r2.9583346e+004 4.78e-001 4.00e+000  -3.3 9.38e+000    -  1.33e-001 3.23e-002h  1
 152r2.9582799e+004 4.78e-001 4.74e+000  -3.3 1.99e+000    -  7.61e-002 4.04e-001H  1
 153r2.9582338e+004 4.78e-001 1.47e+000  -3.3 1.21e+000    -  1.00e+000 1.92e-001h  1
 154r2.9582995e+004 4.78e-001 2.74e+000  -3.3 3.03e+000    -  3.50e-002 3.79e-001f  1
 155r2.9581693e+004 4.78e-001 2.10e+000  -3.3 1.66e+000    -  1.00e+000 3.86e-001h  2
 156r2.9583564e+004 4.78e-001 1.70e+000  -3.3 1.93e+000    -  3.60e-001 1.96e-001h  2
 157r2.9580847e+004 4.78e-001 1.03e+000  -3.3 1.84e+000    -  1.10e-001 4.79e-001h  1
 158r2.9580824e+004 4.78e-001 1.32e+000  -3.3 3.34e+000    -  2.35e-001 1.34e-001h  1
 159r2.9582313e+004 4.78e-001 1.54e+000  -3.3 1.98e+000    -  1.62e-001 2.22e-001h  1
iter    objective    inf_pr   inf_du lg(mu)  ||d||  lg(rg) alpha_du alpha_pr  ls
 160r2.9582085e+004 4.78e-001 8.95e-001  -3.3 2.55e+000    -  2.03e-002 2.00e-001f  2
 161r2.9585486e+004 4.78e-001 1.29e+000  -3.3 8.86e-001    -  1.00e+000 1.00e+000h  1
 162r2.9583036e+004 4.78e-001 1.02e+000  -3.3 1.25e+000    -  5.44e-001 3.39e-001h  1
 163r2.9582531e+004 4.78e-001 6.52e-001  -3.3 5.54e+000    -  2.39e-001 1.34e-001h  2
 164r2.9582595e+004 4.78e-001 6.69e-001  -3.3 2.95e+000    -  1.00e+000 1.45e-001h  1
 165r2.9583494e+004 4.78e-001 6.21e-001  -3.3 3.43e-001    -  7.10e-001 1.00e+000h  1
 166r2.9584283e+004 4.78e-001 9.06e-001  -3.3 4.66e-001    -  1.00e+000 1.00e+000H  1
 167r2.9582871e+004 4.78e-001 2.89e-001  -3.5 3.63e-001    -  1.00e+000 1.00e+000f  1
 168r2.9584040e+004 4.78e-001 1.11e+000  -3.6 1.72e+000    -  2.35e-001 3.42e-001h  1
 169r2.9583782e+004 4.78e-001 6.33e-001  -3.6 6.23e-001    -  7.34e-001 1.00e+000f  1
iter    objective    inf_pr   inf_du lg(mu)  ||d||  lg(rg) alpha_du alpha_pr  ls
 170r2.9583710e+004 4.78e-001 1.11e+000  -3.6 2.73e-001    -  5.72e-001 1.00e+000h  1
 171r2.9584245e+004 4.78e-001 1.11e-001  -3.6 1.20e-001    -  1.00e+000 1.00e+000h  1
 172r2.9584849e+004 4.78e-001 8.25e-001  -3.6 4.90e-001    -  1.00e+000 2.79e-001h  2
 173r2.9585996e+004 4.78e-001 3.39e-001  -3.6 2.74e-001    -  1.00e+000 1.00e+000h  1
 174r2.9586466e+004 4.78e-001 7.79e-001  -3.6 1.72e-001    -  5.44e-001 1.00e+000h  1
 175r2.9586438e+004 4.78e-001 2.60e-001  -3.6 3.85e-001    -  6.20e-001 2.75e-001h  2
 176r2.9586518e+004 4.78e-001 5.21e-001  -3.6 4.44e+000    -  8.54e-002 8.53e-002h  2
 177r2.9586294e+004 4.78e-001 1.86e-001  -3.6 2.76e-001    -  1.00e+000 1.00e+000h  1
 178r2.9586359e+004 4.78e-001 3.43e+000  -3.6 4.01e-001    -  1.00e+000 1.87e-001h  3
 179r2.9586188e+004 4.78e-001 7.27e-002  -3.6 3.41e-002    -  1.00e+000 1.00e+000h  1
iter    objective    inf_pr   inf_du lg(mu)  ||d||  lg(rg) alpha_du alpha_pr  ls
 180r2.9585958e+004 4.78e-001 1.51e+000  -3.6 8.58e-001    -  9.61e-001 8.86e-001h  1
 181r2.9586178e+004 4.78e-001 2.99e+000  -3.7 8.25e-001    -  7.15e-002 1.00e+000h  1
 182r2.9585426e+004 4.78e-001 3.42e+000  -3.7 1.30e+000    -  1.71e-001 6.75e-001h  1
 183r2.9585890e+004 4.78e-001 3.34e+000  -3.7 1.83e+000    -  1.00e+000 1.91e-001h  1
 184r2.9584369e+004 4.78e-001 2.94e+000  -3.7 4.59e+000    -  1.05e-001 2.98e-001h  1
 185r2.9586090e+004 4.78e-001 1.18e+000  -3.7 9.55e-001    -  6.28e-001 1.00e+000h  1
 186r2.9587483e+004 4.78e-001 9.34e-001  -3.7 6.78e-001    -  8.08e-001 1.00e+000h  1
 187r2.9587346e+004 4.78e-001 8.10e-001  -3.7 1.46e+000    -  2.13e-001 2.56e-001h  1
 188r2.9588045e+004 4.78e-001 1.47e+000  -3.7 1.50e+000    -  5.18e-001 8.83e-001H  1
 189r2.9586502e+004 4.78e-001 1.20e+000  -3.7 2.15e+000    -  2.59e-001 1.85e-001f  2
iter    objective    inf_pr   inf_du lg(mu)  ||d||  lg(rg) alpha_du alpha_pr  ls
 190r2.9586450e+004 4.78e-001 1.12e+000  -3.7 4.54e+000    -  5.51e-002 1.26e-002h  1
 191r2.9585418e+004 4.78e-001 7.56e-001  -3.7 8.79e-001    -  7.09e-001 9.40e-001f  1
 192r2.9587834e+004 4.78e-001 1.70e+000  -3.7 1.04e+000    -  3.83e-001 1.00e+000H  1
 193r2.9587115e+004 4.78e-001 3.94e+000  -3.4 9.62e-001    -  1.00e+000 5.96e-001f  1
 194r2.9583955e+004 4.78e-001 2.17e+000  -3.6 5.70e-001    -  5.67e-001 7.73e-001h  1
 195r2.9582946e+004 4.78e-001 1.59e+000  -3.6 1.96e+000    -  3.48e-001 6.23e-001f  1
 196r2.9586426e+004 4.78e-001 1.59e+000  -3.6 9.37e-001    -  3.98e-001 1.00e+000f  1
 197r2.9585519e+004 4.78e-001 1.41e+000  -3.6 6.41e+000    -  1.05e-001 1.14e-001h  1
 198r2.9585175e+004 4.78e-001 7.91e-001  -3.6 4.78e-001    -  1.28e-001 1.00e+000h  1
 199r2.9585879e+004 4.78e-001 9.06e-001  -3.6 6.51e-001    -  1.00e+000 3.60e-001h  1
iter    objective    inf_pr   inf_du lg(mu)  ||d||  lg(rg) alpha_du alpha_pr  ls
 200r2.9585954e+004 4.78e-001 1.87e-001  -3.6 1.78e-001    -  1.00e+000 1.00e+000h  1
 201r2.9585361e+004 4.78e-001 8.85e-001  -3.6 4.69e-001    -  2.39e-001 9.55e-001H  1
 202r2.9586259e+004 4.78e-001 3.67e-001  -3.6 3.61e-001    -  1.00e+000 8.60e-001f  1
 203r2.9586383e+004 4.78e-001 2.66e-001  -3.6 9.67e-001    -  2.88e-001 1.87e-001H  1
 204r2.9587077e+004 4.78e-001 2.99e+000  -3.6 9.09e+000    -  7.62e-001 9.87e-002f  1
 205r2.9585803e+004 4.78e-001 2.24e+000  -3.6 5.71e-001    -  3.63e-001 5.30e-001h  1
 206r2.9585043e+004 4.78e-001 1.65e+000  -3.6 3.37e+000    -  2.62e-001 1.96e-001f  1
 207r2.9586319e+004 4.78e-001 5.80e-001  -3.6 3.23e-001    -  7.25e-001 1.00e+000h  1
 208r2.9585892e+004 4.78e-001 1.23e+000  -3.6 2.66e+000    -  4.11e-001 8.16e-002h  3
 209r2.9585910e+004 4.78e-001 8.53e-001  -3.6 6.95e-001    -  6.08e-001 1.88e-001h  3
iter    objective    inf_pr   inf_du lg(mu)  ||d||  lg(rg) alpha_du alpha_pr  ls
 210r2.9585993e+004 4.78e-001 1.95e-001  -3.6 1.85e-001    -  1.00e+000 1.00e+000h  1
 211r2.9586546e+004 4.78e-001 2.79e-001  -3.6 1.54e-001    -  1.00e+000 1.00e+000h  1
 212r2.9585937e+004 4.78e-001 3.96e-001  -3.6 2.06e-001    -  5.11e-001 1.00e+000H  1
 213r2.9586270e+004 4.78e-001 2.46e-001  -3.9 2.75e-001    -  1.00e+000 9.84e-001f  1
 214r2.9586140e+004 4.78e-001 1.36e+000  -4.0 1.73e+000    -  1.25e-001 4.44e-001h  1
 215r2.9586448e+004 4.78e-001 5.06e-001  -3.6 7.50e-001    -  1.00e+000 1.00e+000f  1
 216r2.9586343e+004 4.78e-001 3.19e-001  -3.7 3.36e+000    -  1.53e-001 1.16e-001h  1
 217r2.9585588e+004 4.78e-001 4.98e-001  -3.7 3.18e-001    -  1.00e+000 8.83e-001f  1
 218r2.9585071e+004 4.78e-001 2.30e+000  -3.7 2.81e+000    -  1.69e-001 4.07e-001h  1
 219r2.9586109e+004 4.78e-001 1.62e+000  -3.7 9.45e-001    -  2.86e-002 1.00e+000f  1
iter    objective    inf_pr   inf_du lg(mu)  ||d||  lg(rg) alpha_du alpha_pr  ls
 220r2.9586119e+004 4.78e-001 1.26e+000  -3.7 3.36e+000    -  2.43e-001 1.39e-001h  1
 221r2.9585704e+004 4.78e-001 4.58e-001  -3.7 4.10e-001    -  7.45e-001 8.19e-001h  1
 222r2.9585778e+004 4.78e-001 4.24e-001  -3.7 7.25e+000    -  1.25e-001 1.62e-002h  1
 223r2.9585497e+004 4.78e-001 1.31e+000  -3.7 9.20e-001    -  3.25e-001 1.00e+000H  1
 224r2.9586811e+004 4.78e-001 2.13e+000  -3.4 2.14e+000    -  3.18e-001 3.93e-001f  1
 225r2.9586579e+004 4.78e-001 1.38e+000  -3.7 3.80e+000    -  1.84e-002 1.83e-001h  1
 226r2.9587176e+004 4.78e-001 1.08e+000  -3.7 2.20e+000    -  7.82e-001 3.47e-001h  1
 227r2.9586475e+004 4.78e-001 1.24e+000  -3.7 4.70e+000    -  1.14e-001 2.10e-001h  1
 228r2.9585733e+004 4.78e-001 9.01e-001  -3.7 1.01e+000    -  1.58e-002 4.55e-001h  1
 229r2.9585288e+004 4.78e-001 1.69e+000  -3.7 2.24e+000    -  1.74e-001 5.48e-001f  1
iter    objective    inf_pr   inf_du lg(mu)  ||d||  lg(rg) alpha_du alpha_pr  ls
 230r2.9585754e+004 4.78e-001 1.15e+000  -3.7 6.30e-001    -  4.08e-002 1.00e+000h  1
 231r2.9586338e+004 4.78e-001 4.34e-001  -3.7 4.36e-001    -  1.00e+000 1.00e+000h  1
 232r2.9586371e+004 4.78e-001 4.17e-001  -3.7 2.79e+000    -  3.15e-001 3.90e-002h  2
 233r2.9586409e+004 4.78e-001 6.34e-002  -3.7 1.96e-001    -  1.00e+000 1.00e+000h  1
 234r2.9585314e+004 4.78e-001 1.09e+000  -3.7 5.86e-001    -  1.00e+000 1.00e+000H  1
 235r2.9585422e+004 4.78e-001 5.94e-001  -3.4 5.42e-001    -  1.00e+000 1.00e+000f  1
 236r2.9584643e+004 4.78e-001 1.48e+000  -3.5 2.82e+000    -  1.20e-001 3.03e-001h  1
 237r2.9585315e+004 4.78e-001 6.69e-001  -3.5 7.70e-001    -  1.00e+000 1.00e+000f  1
 238r2.9585150e+004 4.78e-001 1.34e+000  -3.5 3.51e+000    -  1.02e-001 2.48e-001h  1
 239r2.9585633e+004 4.78e-001 4.14e-001  -3.5 7.98e-001    -  1.00e+000 9.01e-001h  1
iter    objective    inf_pr   inf_du lg(mu)  ||d||  lg(rg) alpha_du alpha_pr  ls
 240r2.9584867e+004 4.78e-001 1.24e+000  -3.5 7.68e-001    -  5.17e-001 8.50e-001h  1
 241r2.9584879e+004 4.78e-001 2.03e+000  -3.5 4.46e-001    -  9.03e-002 1.00e+000h  1
 242r2.9585191e+004 4.78e-001 8.48e-001  -3.5 2.10e+000    -  6.04e-001 1.96e-001h  1
 243r2.9585402e+004 4.78e-001 1.06e-001  -3.5 2.71e-001    -  1.00e+000 1.00e+000h  1
 244r2.9585235e+004 4.78e-001 2.14e-001  -3.5 1.42e-001    -  1.00e+000 1.00e+000h  1
 245r2.9585503e+004 4.78e-001 1.02e-001  -3.5 1.38e-001    -  1.00e+000 1.00e+000h  1
 246r2.9585223e+004 4.78e-001 1.05e-001  -3.5 9.01e-002    -  1.00e+000 1.00e+000h  1
 247r2.9585504e+004 4.78e-001 2.74e-002  -3.5 4.59e-002    -  1.00e+000 1.00e+000h  1
 248r2.9585246e+004 4.78e-001 2.37e-002  -3.5 3.34e-002    -  1.00e+000 1.00e+000h  1
 249r2.9585545e+004 4.78e-001 1.26e-002  -3.5 2.17e-002    -  1.00e+000 1.00e+000h  1
iter    objective    inf_pr   inf_du lg(mu)  ||d||  lg(rg) alpha_du alpha_pr  ls
 250r2.9585301e+004 4.78e-001 6.47e-002  -3.5 3.27e-002    -  1.00e+000 1.00e+000h  1
 251r2.9585389e+004 4.78e-001 3.04e-002  -3.5 3.06e-002    -  1.00e+000 1.00e+000h  1
 252r2.9585399e+004 4.78e-001 9.16e-002  -3.5 5.29e-002    -  1.00e+000 1.00e+000h  1
 253r2.9585410e+004 4.78e-001 1.37e-002  -3.5 4.26e-002    -  1.00e+000 1.00e+000h  1
 254r2.9585439e+004 4.78e-001 7.95e-003  -3.5 6.30e-003    -  1.00e+000 1.00e+000h  1
 255r2.9587225e+004 4.78e-001 1.17e+000  -3.9 7.07e-002    -  8.56e-001 1.00e+000f  1
 256r2.9586781e+004 4.78e-001 3.73e+000  -3.6 1.52e-001    -  1.00e+000 3.33e-001f  1
 257r2.9587011e+004 4.78e-001 3.17e-001  -3.8 1.86e-001    -  1.00e+000 1.00e+000h  1
 258r2.9587207e+004 4.78e-001 8.08e-001  -3.8 6.95e-001    -  1.00e+000 5.90e-001h  1
 259r2.9586985e+004 4.78e-001 9.84e-001  -3.8 4.87e-001    -  2.10e-001 7.30e-001f  1
iter    objective    inf_pr   inf_du lg(mu)  ||d||  lg(rg) alpha_du alpha_pr  ls
 260r2.9586870e+004 4.78e-001 1.19e+000  -3.8 4.68e+000    -  2.28e-001 1.50e-001f  1
 261r2.9586979e+004 4.78e-001 7.35e-001  -3.8 3.06e-001    -  3.12e-002 5.00e-001h  2
 262r2.9586576e+004 4.78e-001 4.04e-001  -3.8 5.38e-001    -  1.00e+000 1.00e+000h  1
 263r2.9586885e+004 4.78e-001 5.22e-002  -3.8 1.15e-001    -  1.00e+000 1.00e+000h  1
 264r2.9586894e+004 4.78e-001 1.98e-002  -3.8 2.40e-002    -  1.00e+000 1.00e+000h  1
 265r2.9586629e+004 4.78e-001 4.33e+000  -5.0 2.94e-002    -  1.00e+000 6.35e-001f  1
 266r2.9587369e+004 4.78e-001 8.24e+000  -5.3 2.28e-001    -  1.00e+000 2.84e-001f  1
 267r2.9586950e+004 4.78e-001 1.54e+000  -4.1 2.54e-001    -  8.94e-001 7.30e-001f  1
 268r2.9587104e+004 4.78e-001 2.69e-001  -4.2 1.87e-001    -  1.00e+000 1.00e+000h  1
 269r2.9587067e+004 4.78e-001 1.50e+000  -4.2 3.41e-001    -  1.00e+000 5.75e-001h  1
iter    objective    inf_pr   inf_du lg(mu)  ||d||  lg(rg) alpha_du alpha_pr  ls
 270r2.9587096e+004 4.78e-001 9.49e-001  -4.2 1.05e-001    -  2.34e-001 1.00e+000h  1
 271r2.9587113e+004 4.78e-001 8.69e-002  -4.2 6.68e-002    -  1.00e+000 1.00e+000h  1
 272r2.9587102e+004 4.78e-001 7.51e-001  -4.6 4.80e-002    -  9.99e-001 7.58e-001f  1
 273r2.9586911e+004 4.78e-001 3.01e-001  -4.2 1.44e-001    -  9.07e-001 8.97e-001f  1
 274r2.9586796e+004 4.78e-001 2.08e-001  -4.3 1.97e-001    -  1.00e+000 1.00e+000h  1
 275r2.9587002e+004 4.78e-001 2.16e+000  -4.3 4.13e-001    -  3.76e-001 1.00e+000h  1
 276r2.9586745e+004 4.78e-001 4.95e-002  -4.3 3.11e-001    -  1.00e+000 1.00e+000h  1
 277r2.9586817e+004 4.78e-001 1.97e-001  -4.3 3.12e-002    -  1.00e+000 1.00e+000h  1
 278r2.9586541e+004 4.78e-001 1.04e+000  -5.1 1.01e-001    -  1.00e+000 6.29e-001f  1
 279r2.9586452e+004 4.78e-001 3.25e+000  -4.3 2.75e-001    -  5.32e-001 9.95e-001f  1
iter    objective    inf_pr   inf_du lg(mu)  ||d||  lg(rg) alpha_du alpha_pr  ls
 280r2.9586337e+004 4.78e-001 1.07e+000  -4.5 3.09e-001    -  8.83e-001 7.62e-001h  1
 281r2.9586327e+004 4.78e-001 4.58e-001  -4.5 4.62e-001    -  5.53e-001 6.24e-001f  1
 282r2.9586333e+004 4.78e-001 5.45e-001  -4.5 2.39e-001    -  1.24e-001 1.00e+000f  1
 283r2.9586377e+004 4.78e-001 7.56e-002  -4.5 7.30e-002    -  1.00e+000 1.00e+000h  1
 284r2.9586355e+004 4.78e-001 1.61e-001  -4.5 9.28e-002    -  1.00e+000 1.00e+000H  1
 285r2.9586453e+004 4.78e-001 1.87e+000  -5.1 2.18e-001    -  1.00e+000 5.86e-001f  1
 286r2.9586408e+004 4.78e-001 4.11e+000  -4.3 1.57e-001    -  7.08e-001 1.00e+000f  1
 287r2.9586377e+004 4.78e-001 1.14e-001  -4.4 5.11e-002    -  1.00e+000 1.00e+000h  1
 288r2.9586421e+004 4.78e-001 1.22e+000  -4.4 6.47e-001    -  1.00e+000 1.00e+000h  1
 289r2.9586178e+004 4.78e-001 5.83e-001  -4.4 5.12e-001    -  6.19e-002 6.27e-001h  1
iter    objective    inf_pr   inf_du lg(mu)  ||d||  lg(rg) alpha_du alpha_pr  ls
 290r2.9586389e+004 4.78e-001 3.66e+000  -4.4 5.75e-001    -  2.41e-002 1.00e+000h  1
 291r2.9586333e+004 4.78e-001 2.41e-001  -4.4 2.67e-001    -  1.00e+000 1.00e+000h  1
 292r2.9586340e+004 4.78e-001 1.18e+000  -4.4 6.71e-001    -  1.00e+000 6.35e-001h  1
 293r2.9586300e+004 4.78e-001 2.05e+000  -4.4 3.22e-001    -  1.07e-001 1.00e+000f  1
 294r2.9586964e+004 4.78e-001 1.42e+000  -4.4 7.06e-001    -  1.00e+000 1.00e+000H  1
 295r2.9586159e+004 4.78e-001 2.12e-002  -4.4 6.32e-001    -  9.97e-001 1.00e+000f  1
 296r2.9586409e+004 4.78e-001 1.92e-002  -4.4 4.50e-003    -  1.00e+000 1.00e+000h  1
 297r2.9586412e+004 4.78e-001 2.09e-002  -4.4 9.54e-003    -  1.00e+000 1.00e+000h  1
 298r2.9586401e+004 4.78e-001 1.02e-001  -4.4 4.54e-002    -  1.00e+000 1.00e+000h  1
 299r2.9586446e+004 4.78e-001 1.48e-001  -4.4 9.33e-002    -  1.00e+000 1.00e+000h  1
iter    objective    inf_pr   inf_du lg(mu)  ||d||  lg(rg) alpha_du alpha_pr  ls
 300r2.9586592e+004 4.78e-001 1.10e+000  -4.4 1.19e+000    -  3.94e-001 1.95e-001h  2

Number of Iterations....: 300

                                   (scaled)                 (unscaled)
Objective...............:  1.4760164032376039e+002   2.9586592286049232e+004
Dual infeasibility......:  1.0000058093350869e+002   2.0045010407458951e+004
Constraint violation....:  4.7836091428277816e-001   4.7836091428277816e-001
Complementarity.........:  4.0649973694630177e-005   8.1482441218374713e-003
Overall NLP error.......:  1.0000058093350869e+002   2.0045010407458951e+004


Number of objective function evaluations             = 478
Number of objective gradient evaluations             = 21
Number of equality constraint evaluations            = 478
Number of inequality constraint evaluations          = 478
Number of equality constraint Jacobian evaluations   = 302
Number of inequality constraint Jacobian evaluations = 302
Number of Lagrangian Hessian evaluations             = 0
Total CPU secs in IPOPT (w/o function evaluations)   =      7.893
Total CPU secs in NLP function evaluations           =     22.487

EXIT: Maximum Number of Iterations Exceeded.
